c DESCRIPTION: Quasi-random coloring problem
c CODE SOURCE: Joseph Culberson (joe@cs.ualberta.ca)
c Specifications: 
c   Random seed: 46327
c   No hidden coloring
c   Probability: 0.100000
c   random IID graph
c   Degree Information:
c   Min:0 Avg:4.320000 Max:8 Std:1.725572
c No verification required.
c Creation Date: Fri Aug  8 11:36:17 2003
p edge 50 108
c no cheat
e 7 2
e 7 4
e 8 1
e 8 3
e 9 1
e 9 4
e 11 10
e 13 8
e 14 3
e 14 4
e 14 11
e 15 2
e 15 9
e 17 9
e 17 11
e 18 3
e 19 2
e 19 12
e 19 18
e 20 7
e 20 13
e 21 10
e 21 13
e 22 5
e 22 11
e 22 15
e 24 11
e 24 16
e 25 20
e 26 20
e 27 9
e 27 19
e 28 5
e 30 8
e 30 24
e 31 5
e 31 11
e 31 15
e 31 28
e 32 11
e 32 13
e 33 7
e 33 19
e 34 4
e 34 6
e 34 13
e 34 31
e 35 5
e 35 7
e 35 13
e 36 13
e 36 31
e 36 34
e 37 27
e 38 2
e 38 35
e 39 16
e 39 31
e 39 34
e 39 37
e 40 13
e 40 14
e 40 18
e 40 34
e 41 9
e 41 14
e 41 27
e 41 37
e 42 2
e 42 6
e 42 10
e 42 15
e 42 41
e 43 7
e 43 20
e 43 41
e 44 6
e 44 22
e 44 23
e 44 24
e 44 41
e 45 1
e 45 8
e 45 16
e 45 32
e 46 23
e 46 42
e 47 5
e 47 7
e 47 14
e 47 21
e 47 36
e 47 38
e 48 12
e 48 22
e 48 26
e 48 33
e 48 44
e 49 1
e 49 10
e 49 11
e 49 21
e 49 28
e 50 6
e 50 21
e 50 32
e 50 35
e 50 46
n 1 5
n 2 12
n 3 6
n 4 2
n 5 5
n 6 19
n 7 10
n 8 13
n 9 13
n 10 15
n 11 3
n 12 6
n 13 12
n 14 12
n 15 5
n 16 12
n 17 5
n 18 3
n 19 4
n 20 3
n 21 18
n 22 18
n 23 10
n 24 4
n 25 12
n 26 14
n 27 18
n 28 13
n 29 15
n 30 19
n 31 3
n 32 19
n 33 10
n 34 8
n 35 20
n 36 15
n 37 7
n 38 10
n 39 7
n 40 20
n 41 4
n 42 9
n 43 5
n 44 16
n 45 1
n 46 9
n 47 7
n 48 5
n 49 12
n 50 11
